width = 39;
n = 29;
DX = [3, 3, 3, 3, 3, 3, 3, 3, 3, 3, 4, 4, 4, 4, 4, 4, 4, 4, 4, 5, 5, 5, 5, 5, 5, 5, 5, 5, 15];
DY = [3, 4, 5, 6, 7, 8, 9, 10, 11, 15, 3, 4, 5, 6, 8, 9, 12, 15, 16, 3, 4, 5, 6, 8, 10, 11, 13, 18, 39];